DATASET = "thpack5";
INSTANCE = "033";

WIDTH = 233;
HEIGHT = 220;
LENGTH = 587;

NO_OF_SHAPES = 12;
size = [|
  40,36,21 |
  76,45,31 |
  63,54,51 |
  114,77,69 |
  95,57,53 |
  92,36,20 |
  90,84,47 |
  84,69,24 |
  57,35,35 |
  78,76,50 |
  81,67,37 |
  73,51,43 |
|];

verticality = [|
  1,1,1 |
  0,1,1 |
  1,1,1 |
  1,1,1 |
  1,1,1 |
  0,1,1 |
  1,1,1 |
  0,0,1 |
  1,1,1 |
  1,1,1 |
  0,1,1 |
  1,1,1 |
|];

box_count = [
  9,
  10,
  9,
  14,
  12,
  15,
  10,
  15,
  11,
  10,
  16,
  10,
];
